
Gurobi 7.5.2 (mac64, Python) logging started Wed May 23 17:58:56 2018

Academic license - for non-commercial use only

Gurobi 7.5.2 (mac64, Python) logging started Wed May 23 18:32:40 2018

Academic license - for non-commercial use only

Gurobi 7.5.2 (mac64, Python) logging started Wed May 23 18:56:58 2018

Academic license - for non-commercial use only

Gurobi 7.5.2 (mac64, Python) logging started Thu May 24 14:18:45 2018

Academic license - for non-commercial use only

Gurobi 7.5.2 (mac64, Python) logging started Thu May 24 17:33:20 2018

Academic license - for non-commercial use only

Gurobi 7.5.2 (mac64, Python) logging started Thu May 24 17:34:04 2018

Academic license - for non-commercial use only

Gurobi 7.5.2 (mac64, Python) logging started Thu May 24 17:34:13 2018

Academic license - for non-commercial use only

Gurobi 7.5.2 (mac64, Python) logging started Thu May 24 17:34:23 2018

Academic license - for non-commercial use only

Gurobi 7.5.2 (mac64, Python) logging started Thu May 24 17:34:32 2018

Academic license - for non-commercial use only

Gurobi 7.5.2 (mac64, Python) logging started Thu May 24 17:34:42 2018

Academic license - for non-commercial use only

Gurobi 7.5.2 (mac64, Python) logging started Thu May 24 17:38:57 2018

Academic license - for non-commercial use only

Gurobi 7.5.2 (mac64, Python) logging started Thu May 24 17:40:04 2018

Academic license - for non-commercial use only

Gurobi 7.5.2 (mac64, Python) logging started Thu May 24 17:41:15 2018

Academic license - for non-commercial use only

Gurobi 7.5.2 (mac64, Python) logging started Thu May 24 17:42:33 2018

Academic license - for non-commercial use only

Gurobi 7.5.2 (mac64, Python) logging started Thu May 24 17:46:38 2018

Academic license - for non-commercial use only

Gurobi 7.5.2 (mac64, Python) logging started Thu May 24 17:46:47 2018

Academic license - for non-commercial use only

Gurobi 7.5.2 (mac64, Python) logging started Thu May 24 17:46:56 2018

Academic license - for non-commercial use only

Gurobi 7.5.2 (mac64, Python) logging started Thu May 24 17:47:06 2018

Academic license - for non-commercial use only

Gurobi 7.5.2 (mac64, Python) logging started Thu May 24 17:47:15 2018

Academic license - for non-commercial use only

Gurobi 7.5.2 (mac64, Python) logging started Thu May 24 17:47:48 2018

Academic license - for non-commercial use only

Gurobi 7.5.2 (mac64, Python) logging started Thu May 24 17:48:20 2018

Academic license - for non-commercial use only

Gurobi 7.5.2 (mac64, Python) logging started Thu May 24 17:50:18 2018

Academic license - for non-commercial use only

Gurobi 7.5.2 (mac64, Python) logging started Thu May 24 18:21:01 2018

Academic license - for non-commercial use only

Gurobi 7.5.2 (mac64, Python) logging started Fri May 25 07:26:51 2018

Academic license - for non-commercial use only

Gurobi 7.5.2 (mac64, Python) logging started Fri May 25 07:27:39 2018

Academic license - for non-commercial use only

Gurobi 7.5.2 (mac64, Python) logging started Fri May 25 07:29:25 2018

Academic license - for non-commercial use only

Gurobi 7.5.2 (mac64, Python) logging started Fri May 25 07:30:48 2018

Academic license - for non-commercial use only

Gurobi 7.5.2 (mac64, Python) logging started Fri May 25 07:31:44 2018

Academic license - for non-commercial use only

Gurobi 7.5.2 (mac64, Python) logging started Fri May 25 07:35:02 2018

Academic license - for non-commercial use only

Gurobi 7.5.2 (mac64, Python) logging started Fri May 25 07:41:02 2018

Academic license - for non-commercial use only

Gurobi 7.5.2 (mac64, Python) logging started Fri May 25 07:44:23 2018

Academic license - for non-commercial use only

Gurobi 7.5.2 (mac64, Python) logging started Fri May 25 10:30:56 2018

Academic license - for non-commercial use only
